p cnf 94 315
3 -4 -5 0
-3 4 -5 0
3 4 5 0
-3 -4 5 0
-5 -6 -7 0
5 6 -7 0
-5 6 7 0
5 -6 7 0
8 -2 0
8 -7 0
2 7 -8 0
-9 1 0
-9 -8 0
-1 8 9 0
-12 -10 0
-12 11 0
10 -11 12 0
-13 -1 0
-13 -12 0
1 12 13 0
-14 -13 0
-14 11 0
13 -11 14 0
-15 -9 0
-15 14 0
9 -14 15 0
16 1 0
16 -15 0
-1 15 -16 0
-18 -2 0
-18 -17 0
2 17 18 0
19 18 0
19 17 0
-18 -17 -19 0
4 19 -20 0
-4 -19 -20 0
4 -19 20 0
-4 19 20 0
-21 -20 0
-21 -9 0
20 9 21 0
-13 -22 -23 0
13 22 -23 0
-13 22 23 0
13 -22 23 0
-24 -21 0
-24 23 0
21 -23 24 0
-25 -22 -26 0
25 22 -26 0
-25 22 26 0
25 -22 26 0
28 3 0
28 -27 0
-3 27 -28 0
-29 -28 0
-29 25 0
28 -25 29 0
30 29 0
30 -22 0
-29 22 -30 0
-5 30 -31 0
5 -30 -31 0
-5 -30 31 0
5 30 31 0
-32 5 0
-32 31 0
-5 -31 32 0
33 25 0
33 7 0
-25 -7 -33 0
-34 33 0
-34 -3 0
-33 3 34 0
-35 32 0
-35 34 0
-32 -34 35 0
-36 19 0
-36 -9 0
-19 9 36 0
37 35 0
37 36 0
-35 -36 -37 0
-38 -5 0
-38 1 0
5 -1 38 0
5 38 -39 0
-5 -38 -39 0
5 -38 39 0
-5 38 39 0
40 37 0
40 -39 0
-37 39 -40 0
26 40 -41 0
-26 -40 -41 0
26 -40 41 0
-26 40 41 0
-42 24 0
-42 -41 0
-24 41 42 0
43 -16 0
43 -42 0
16 42 -43 0
44 -3 0
44 2 0
3 -2 -44 0
-45 4 -46 0
45 -4 -46 0
-45 -4 46 0
45 4 46 0
-47 -46 0
-47 8 0
46 -8 47 0
47 -29 -48 0
-47 29 -48 0
47 29 48 0
-47 -29 48 0
-49 -5 0
-49 18 0
5 -18 49 0
-50 -1 0
-50 -49 0
1 49 50 0
51 50 0
51 25 0
-50 -25 -51 0
-52 48 0
-52 51 0
-48 -51 52 0
-53 -44 0
-53 52 0
44 -52 53 0
-3 -14 -54 0
3 14 -54 0
-3 14 54 0
3 -14 54 0
53 54 -55 0
-53 -54 -55 0
53 -54 55 0
-53 54 55 0
-56 -18 0
-56 -27 0
18 27 56 0
-58 -30 0
-58 -57 0
30 57 58 0
-56 58 -59 0
56 -58 -59 0
-56 -58 59 0
56 58 59 0
-60 29 0
-60 11 0
-29 -11 60 0
61 60 0
61 38 0
-60 -38 -61 0
-63 -47 0
-63 45 0
47 -45 63 0
64 46 0
64 -10 0
-46 10 -64 0
65 63 0
65 64 0
-63 -64 -65 0
-66 -62 0
-66 -65 0
62 65 66 0
67 -46 0
67 28 0
46 -28 -67 0
68 -67 0
68 -11 0
67 11 -68 0
69 68 0
69 20 0
-68 -20 -69 0
-70 -66 0
-70 69 0
66 -69 70 0
71 61 0
71 70 0
-61 -70 -71 0
-72 -14 0
-72 -20 0
14 20 72 0
-73 -71 0
-73 72 0
71 -72 73 0
-74 59 0
-74 -73 0
-59 73 74 0
-55 -74 -75 0
55 74 -75 0
-55 74 75 0
55 -74 75 0
38 18 -76 0
-38 -18 -76 0
38 -18 76 0
-38 18 76 0
76 -68 -77 0
-76 68 -77 0
76 68 77 0
-76 -68 77 0
78 25 0
78 -38 0
-25 38 -78 0
-77 -78 -79 0
77 78 -79 0
-77 78 79 0
77 -78 79 0
75 79 -80 0
-75 -79 -80 0
75 -79 80 0
-75 79 80 0
81 -43 0
81 80 0
43 -80 -81 0
60 -12 -82 0
-60 12 -82 0
60 12 82 0
-60 -12 82 0
83 19 0
83 -82 0
-19 82 -83 0
84 31 0
84 -28 0
-31 28 -84 0
-85 -84 0
-85 62 0
84 -62 85 0
86 -83 0
86 -85 0
83 85 -86 0
87 62 0
87 -49 0
-62 49 -87 0
31 28 -88 0
-31 -28 -88 0
31 -28 88 0
-31 28 88 0
89 -87 0
89 -88 0
87 88 -89 0
90 -3 0
90 1 0
3 -1 -90 0
91 50 0
91 90 0
-50 -90 -91 0
-89 91 -92 0
89 -91 -92 0
-89 -91 92 0
89 91 92 0
93 86 0
93 92 0
-86 -92 -93 0
81 -93 -94 0
-81 93 -94 0
81 93 94 0
-81 -93 94 0
-3 63 0
-70 -62 0
-41 14 29 -66 0
46 84 73 0
-3 -73 -83 -81 59 1 0
-60 84 -10 71 0
84 60 75 56 0
-89 46 20 -19 -25 0
-51 -40 -33 -2 23 0
8 -7 -19 0
92 33 -57 0
-2 19 -45 -41 0
31 11 -27 68 75 0
-69 -54 16 44 0
-84 68 -5 0
27 48 1 -53 18 0
32 71 -56 20 -4 -38 0
-33 40 -88 13 0
-10 -2 -28 0
5 57 0
-11 -47 -94 0
-83 -52 85 74 81 30 0
-57 -70 -23 24 -47 0
-48 -36 0
-48 5 -55 0
67 -93 -72 -35 0
-22 -9 -80 -28 0
42 -60 90 -89 0
92 -72 10 0
-48 -68 -11 0
23 -30 11 14 -91 -63 0
-8 -14 69 67 -65 45 0
-25 -76 -43 -40 0
77 -91 14 6 -22 44 0
87 73 0
28 -83 11 -5 -2 -48 0
41 62 0
-6 5 28 0
-47 17 -61 27 37 0
34 -7 86 15 -93 -58 0
26 65 77 -22 0
-49 -45 -84 -27 48 0
49 68 -88 -80 0
-92 -46 -68 0
-43 52 0
61 -36 0
10 77 0
39 19 0
-94 -85 -23 46 0
-38 53 39 -31 -19 0
-84 53 -58 0
-78 49 74 52 0
94 0
